-321 -341 0
37 321 0
-339 -20 321 0
-20 321 0
d -339 -20 321 0
-341 0
321 0
-21 0
1 0
41 0
-301 0
-61 0
-39 0
339 0
-319 0
19 0
18 0
-273 0
-291 0
-313 0
-49 0
-67 0
-259 0
-38 0
-276 0
-290 0
-277 0
-299 0
-63 0
-81 0
16 0
13 0
338 0
15 0
5 0
-231 0
-243 0
-36 0
-204 0
-232 0
-246 0
-274 0
-288 0
-248 0
-249 0
-271 0
-91 0
-108 0
-109 0
-189 0
-33 0
-201 0
-229 0
-285 0
-207 0
-133 0
-151 0
-206 0
-66 0
-318 0
-150 0
-80 0
-217 0
-35 0
-203 0
-287 0
-235 0
-257 0
-105 0
-122 0
-123 0
-245 0
-234 0
-77 0
-25 0
-193 0
-221 0
-263 0
-89 0
-92 0
-94 0
-95 0
-117 0
-262 0
2 0
3 0
336 0
17 0
20 0
333 0
4 0
6 0
8 0
10 0
12 0
335 0
14 0
325 0
9 0
11 0
7 0
-22 0
0
